\* Minimize_Cost *\
Minimize
OBJ: st_16 + 636.131 x_16_CPU_B + 639.13 x_16_CPU_S + 690.464 x_16_GPU
Subject To
_C1: x_7_CPU_B + x_7_CPU_S + x_7_GPU = 1
_C10: x_16_CPU_B + x_16_CPU_S + x_16_GPU = 1
_C2: x_8_CPU_B + x_8_CPU_S + x_8_GPU = 1
_C3: x_9_CPU_B + x_9_CPU_S + x_9_GPU = 1
_C4: x_11_CPU_B + x_11_CPU_S + x_11_GPU = 1
_C5: x_14_CPU_B + x_14_CPU_S + x_14_GPU = 1
_C6: x_10_CPU_B + x_10_CPU_S + x_10_GPU = 1
_C7: x_12_CPU_B + x_12_CPU_S + x_12_GPU = 1
_C8: x_15_CPU_B + x_15_CPU_S + x_15_GPU = 1
_C9: x_13_CPU_B + x_13_CPU_S + x_13_GPU = 1
dep_10_9: st_10 - st_9 - 639.548 x_9_CPU_B - 1572.221 x_9_CPU_S
 - 1294.636 x_9_GPU >= 0
dep_11_7: st_11 - st_7 - 820.301 x_7_CPU_B - 2952.649 x_7_CPU_S
 - 1240.718 x_7_GPU >= 0
dep_12_11: - st_11 + st_12 - 804.675 x_11_CPU_B - 2269.81 x_11_CPU_S
 - 1378.011 x_11_GPU >= 0
dep_13_12: - st_12 + st_13 - 1995.272 x_12_CPU_B - 5406.502 x_12_CPU_S
 - 3127.526 x_12_GPU >= 0
dep_14_7: st_14 - st_7 - 820.301 x_7_CPU_B - 2952.649 x_7_CPU_S
 - 1240.718 x_7_GPU >= 0
dep_15_14: - st_14 + st_15 - 534.59 x_14_CPU_B - 1711.472 x_14_CPU_S
 - 985.383 x_14_GPU >= 0
dep_16_10: - st_10 + st_16 - 3986.543 x_10_CPU_B - 11471.093 x_10_CPU_S
 - 7812.896 x_10_GPU >= 0
dep_16_13: - st_13 + st_16 - 2648.446 x_13_CPU_B - 7091.724 x_13_CPU_S
 - 3063.983 x_13_GPU >= 0
dep_16_15: - st_15 + st_16 - 459.338 x_15_CPU_B - 1318.261 x_15_CPU_S
 - 913.674 x_15_GPU >= 0
dep_16_8: st_16 - st_8 - 806.55 x_8_CPU_B - 2240.643 x_8_CPU_S
 - 1350.344 x_8_GPU >= 0
dep_8_7: - st_7 + st_8 - 820.301 x_7_CPU_B - 2952.649 x_7_CPU_S
 - 1240.718 x_7_GPU >= 0
dep_9_7: - st_7 + st_9 - 820.301 x_7_CPU_B - 2952.649 x_7_CPU_S
 - 1240.718 x_7_GPU >= 0
pair_10_11_CPU_B: st_10 - st_11 + 200088426.315 x_10_CPU_B
 + 11471.093 x_10_CPU_S + 7812.896 x_10_GPU + 200084439.772 x_11_CPU_B
 + 100042219.886 y_11_10_CPU_B <= 500211099.43
pair_10_11_CPU_S: st_10 - st_11 + 3986.543 x_10_CPU_B
 + 200095910.865 x_10_CPU_S + 7812.896 x_10_GPU + 200084439.772 x_11_CPU_S
 + 100042219.886 y_11_10_CPU_S <= 500211099.43
pair_10_11_GPU: st_10 - st_11 + 3986.543 x_10_CPU_B + 11471.093 x_10_CPU_S
 + 200092252.668 x_10_GPU + 200084439.772 x_11_GPU + 100042219.886 y_11_10_GPU
 <= 500211099.43
pair_10_12_CPU_B: st_10 - st_12 + 200088426.315 x_10_CPU_B
 + 11471.093 x_10_CPU_S + 7812.896 x_10_GPU + 200084439.772 x_12_CPU_B
 - 100042219.886 y_10_12_CPU_B <= 400168879.544
pair_10_12_CPU_S: st_10 - st_12 + 3986.543 x_10_CPU_B
 + 200095910.865 x_10_CPU_S + 7812.896 x_10_GPU + 200084439.772 x_12_CPU_S
 - 100042219.886 y_10_12_CPU_S <= 400168879.544
pair_10_12_GPU: st_10 - st_12 + 3986.543 x_10_CPU_B + 11471.093 x_10_CPU_S
 + 200092252.668 x_10_GPU + 200084439.772 x_12_GPU - 100042219.886 y_10_12_GPU
 <= 400168879.544
pair_10_13_CPU_B: st_10 - st_13 + 200088426.315 x_10_CPU_B
 + 11471.093 x_10_CPU_S + 7812.896 x_10_GPU + 200084439.772 x_13_CPU_B
 - 100042219.886 y_10_13_CPU_B <= 400168879.544
pair_10_13_CPU_S: st_10 - st_13 + 3986.543 x_10_CPU_B
 + 200095910.865 x_10_CPU_S + 7812.896 x_10_GPU + 200084439.772 x_13_CPU_S
 - 100042219.886 y_10_13_CPU_S <= 400168879.544
pair_10_13_GPU: st_10 - st_13 + 3986.543 x_10_CPU_B + 11471.093 x_10_CPU_S
 + 200092252.668 x_10_GPU + 200084439.772 x_13_GPU - 100042219.886 y_10_13_GPU
 <= 400168879.544
pair_10_14_CPU_B: st_10 - st_14 + 200088426.315 x_10_CPU_B
 + 11471.093 x_10_CPU_S + 7812.896 x_10_GPU + 200084439.772 x_14_CPU_B
 + 100042219.886 y_14_10_CPU_B <= 500211099.43
pair_10_14_CPU_S: st_10 - st_14 + 3986.543 x_10_CPU_B
 + 200095910.865 x_10_CPU_S + 7812.896 x_10_GPU + 200084439.772 x_14_CPU_S
 + 100042219.886 y_14_10_CPU_S <= 500211099.43
pair_10_14_GPU: st_10 - st_14 + 3986.543 x_10_CPU_B + 11471.093 x_10_CPU_S
 + 200092252.668 x_10_GPU + 200084439.772 x_14_GPU + 100042219.886 y_14_10_GPU
 <= 500211099.43
pair_10_15_CPU_B: st_10 - st_15 + 200088426.315 x_10_CPU_B
 + 11471.093 x_10_CPU_S + 7812.896 x_10_GPU + 200084439.772 x_15_CPU_B
 - 100042219.886 y_10_15_CPU_B <= 400168879.544
pair_10_15_CPU_S: st_10 - st_15 + 3986.543 x_10_CPU_B
 + 200095910.865 x_10_CPU_S + 7812.896 x_10_GPU + 200084439.772 x_15_CPU_S
 - 100042219.886 y_10_15_CPU_S <= 400168879.544
pair_10_15_GPU: st_10 - st_15 + 3986.543 x_10_CPU_B + 11471.093 x_10_CPU_S
 + 200092252.668 x_10_GPU + 200084439.772 x_15_GPU - 100042219.886 y_10_15_GPU
 <= 400168879.544
pair_10_8_CPU_B: st_10 - st_8 + 200088426.315 x_10_CPU_B
 + 11471.093 x_10_CPU_S + 7812.896 x_10_GPU + 200084439.772 x_8_CPU_B
 + 100042219.886 y_8_10_CPU_B <= 500211099.43
pair_10_8_CPU_S: st_10 - st_8 + 3986.543 x_10_CPU_B + 200095910.865 x_10_CPU_S
 + 7812.896 x_10_GPU + 200084439.772 x_8_CPU_S + 100042219.886 y_8_10_CPU_S
 <= 500211099.43
pair_10_8_GPU: st_10 - st_8 + 3986.543 x_10_CPU_B + 11471.093 x_10_CPU_S
 + 200092252.668 x_10_GPU + 200084439.772 x_8_GPU + 100042219.886 y_8_10_GPU
 <= 500211099.43
pair_11_10_CPU_B: - st_10 + st_11 + 200084439.772 x_10_CPU_B
 + 200085244.447 x_11_CPU_B + 2269.81 x_11_CPU_S + 1378.011 x_11_GPU
 - 100042219.886 y_11_10_CPU_B <= 400168879.544
pair_11_10_CPU_S: - st_10 + st_11 + 200084439.772 x_10_CPU_S
 + 804.675 x_11_CPU_B + 200086709.582 x_11_CPU_S + 1378.011 x_11_GPU
 - 100042219.886 y_11_10_CPU_S <= 400168879.544
pair_11_10_GPU: - st_10 + st_11 + 200084439.772 x_10_GPU + 804.675 x_11_CPU_B
 + 2269.81 x_11_CPU_S + 200085817.783 x_11_GPU - 100042219.886 y_11_10_GPU
 <= 400168879.544
pair_11_14_CPU_B: st_11 - st_14 + 200085244.447 x_11_CPU_B
 + 2269.81 x_11_CPU_S + 1378.011 x_11_GPU + 200084439.772 x_14_CPU_B
 - 100042219.886 y_11_14_CPU_B <= 400168879.544
pair_11_14_CPU_S: st_11 - st_14 + 804.675 x_11_CPU_B
 + 200086709.582 x_11_CPU_S + 1378.011 x_11_GPU + 200084439.772 x_14_CPU_S
 - 100042219.886 y_11_14_CPU_S <= 400168879.544
pair_11_14_GPU: st_11 - st_14 + 804.675 x_11_CPU_B + 2269.81 x_11_CPU_S
 + 200085817.783 x_11_GPU + 200084439.772 x_14_GPU - 100042219.886 y_11_14_GPU
 <= 400168879.544
pair_11_15_CPU_B: st_11 - st_15 + 200085244.447 x_11_CPU_B
 + 2269.81 x_11_CPU_S + 1378.011 x_11_GPU + 200084439.772 x_15_CPU_B
 - 100042219.886 y_11_15_CPU_B <= 400168879.544
pair_11_15_CPU_S: st_11 - st_15 + 804.675 x_11_CPU_B
 + 200086709.582 x_11_CPU_S + 1378.011 x_11_GPU + 200084439.772 x_15_CPU_S
 - 100042219.886 y_11_15_CPU_S <= 400168879.544
pair_11_15_GPU: st_11 - st_15 + 804.675 x_11_CPU_B + 2269.81 x_11_CPU_S
 + 200085817.783 x_11_GPU + 200084439.772 x_15_GPU - 100042219.886 y_11_15_GPU
 <= 400168879.544
pair_11_8_CPU_B: st_11 - st_8 + 200085244.447 x_11_CPU_B + 2269.81 x_11_CPU_S
 + 1378.011 x_11_GPU + 200084439.772 x_8_CPU_B + 100042219.886 y_8_11_CPU_B
 <= 500211099.43
pair_11_8_CPU_S: st_11 - st_8 + 804.675 x_11_CPU_B + 200086709.582 x_11_CPU_S
 + 1378.011 x_11_GPU + 200084439.772 x_8_CPU_S + 100042219.886 y_8_11_CPU_S
 <= 500211099.43
pair_11_8_GPU: st_11 - st_8 + 804.675 x_11_CPU_B + 2269.81 x_11_CPU_S
 + 200085817.783 x_11_GPU + 200084439.772 x_8_GPU + 100042219.886 y_8_11_GPU
 <= 500211099.43
pair_11_9_CPU_B: st_11 - st_9 + 200085244.447 x_11_CPU_B + 2269.81 x_11_CPU_S
 + 1378.011 x_11_GPU + 200084439.772 x_9_CPU_B + 100042219.886 y_9_11_CPU_B
 <= 500211099.43
pair_11_9_CPU_S: st_11 - st_9 + 804.675 x_11_CPU_B + 200086709.582 x_11_CPU_S
 + 1378.011 x_11_GPU + 200084439.772 x_9_CPU_S + 100042219.886 y_9_11_CPU_S
 <= 500211099.43
pair_11_9_GPU: st_11 - st_9 + 804.675 x_11_CPU_B + 2269.81 x_11_CPU_S
 + 200085817.783 x_11_GPU + 200084439.772 x_9_GPU + 100042219.886 y_9_11_GPU
 <= 500211099.43
pair_12_10_CPU_B: - st_10 + st_12 + 200084439.772 x_10_CPU_B
 + 200086435.044 x_12_CPU_B + 5406.502 x_12_CPU_S + 3127.526 x_12_GPU
 + 100042219.886 y_10_12_CPU_B <= 500211099.43
pair_12_10_CPU_S: - st_10 + st_12 + 200084439.772 x_10_CPU_S
 + 1995.272 x_12_CPU_B + 200089846.274 x_12_CPU_S + 3127.526 x_12_GPU
 + 100042219.886 y_10_12_CPU_S <= 500211099.43
pair_12_10_GPU: - st_10 + st_12 + 200084439.772 x_10_GPU + 1995.272 x_12_CPU_B
 + 5406.502 x_12_CPU_S + 200087567.298 x_12_GPU + 100042219.886 y_10_12_GPU
 <= 500211099.43
pair_12_14_CPU_B: st_12 - st_14 + 200086435.044 x_12_CPU_B
 + 5406.502 x_12_CPU_S + 3127.526 x_12_GPU + 200084439.772 x_14_CPU_B
 + 100042219.886 y_14_12_CPU_B <= 500211099.43
pair_12_14_CPU_S: st_12 - st_14 + 1995.272 x_12_CPU_B
 + 200089846.274 x_12_CPU_S + 3127.526 x_12_GPU + 200084439.772 x_14_CPU_S
 + 100042219.886 y_14_12_CPU_S <= 500211099.43
pair_12_14_GPU: st_12 - st_14 + 1995.272 x_12_CPU_B + 5406.502 x_12_CPU_S
 + 200087567.298 x_12_GPU + 200084439.772 x_14_GPU + 100042219.886 y_14_12_GPU
 <= 500211099.43
pair_12_15_CPU_B: st_12 - st_15 + 200086435.044 x_12_CPU_B
 + 5406.502 x_12_CPU_S + 3127.526 x_12_GPU + 200084439.772 x_15_CPU_B
 - 100042219.886 y_12_15_CPU_B <= 400168879.544
pair_12_15_CPU_S: st_12 - st_15 + 1995.272 x_12_CPU_B
 + 200089846.274 x_12_CPU_S + 3127.526 x_12_GPU + 200084439.772 x_15_CPU_S
 - 100042219.886 y_12_15_CPU_S <= 400168879.544
pair_12_15_GPU: st_12 - st_15 + 1995.272 x_12_CPU_B + 5406.502 x_12_CPU_S
 + 200087567.298 x_12_GPU + 200084439.772 x_15_GPU - 100042219.886 y_12_15_GPU
 <= 400168879.544
pair_12_8_CPU_B: st_12 - st_8 + 200086435.044 x_12_CPU_B + 5406.502 x_12_CPU_S
 + 3127.526 x_12_GPU + 200084439.772 x_8_CPU_B + 100042219.886 y_8_12_CPU_B
 <= 500211099.43
pair_12_8_CPU_S: st_12 - st_8 + 1995.272 x_12_CPU_B + 200089846.274 x_12_CPU_S
 + 3127.526 x_12_GPU + 200084439.772 x_8_CPU_S + 100042219.886 y_8_12_CPU_S
 <= 500211099.43
pair_12_8_GPU: st_12 - st_8 + 1995.272 x_12_CPU_B + 5406.502 x_12_CPU_S
 + 200087567.298 x_12_GPU + 200084439.772 x_8_GPU + 100042219.886 y_8_12_GPU
 <= 500211099.43
pair_12_9_CPU_B: st_12 - st_9 + 200086435.044 x_12_CPU_B + 5406.502 x_12_CPU_S
 + 3127.526 x_12_GPU + 200084439.772 x_9_CPU_B + 100042219.886 y_9_12_CPU_B
 <= 500211099.43
pair_12_9_CPU_S: st_12 - st_9 + 1995.272 x_12_CPU_B + 200089846.274 x_12_CPU_S
 + 3127.526 x_12_GPU + 200084439.772 x_9_CPU_S + 100042219.886 y_9_12_CPU_S
 <= 500211099.43
pair_12_9_GPU: st_12 - st_9 + 1995.272 x_12_CPU_B + 5406.502 x_12_CPU_S
 + 200087567.298 x_12_GPU + 200084439.772 x_9_GPU + 100042219.886 y_9_12_GPU
 <= 500211099.43
pair_13_10_CPU_B: - st_10 + st_13 + 200084439.772 x_10_CPU_B
 + 200087088.218 x_13_CPU_B + 7091.724 x_13_CPU_S + 3063.983 x_13_GPU
 + 100042219.886 y_10_13_CPU_B <= 500211099.43
pair_13_10_CPU_S: - st_10 + st_13 + 200084439.772 x_10_CPU_S
 + 2648.446 x_13_CPU_B + 200091531.496 x_13_CPU_S + 3063.983 x_13_GPU
 + 100042219.886 y_10_13_CPU_S <= 500211099.43
pair_13_10_GPU: - st_10 + st_13 + 200084439.772 x_10_GPU + 2648.446 x_13_CPU_B
 + 7091.724 x_13_CPU_S + 200087503.755 x_13_GPU + 100042219.886 y_10_13_GPU
 <= 500211099.43
pair_13_14_CPU_B: st_13 - st_14 + 200087088.218 x_13_CPU_B
 + 7091.724 x_13_CPU_S + 3063.983 x_13_GPU + 200084439.772 x_14_CPU_B
 + 100042219.886 y_14_13_CPU_B <= 500211099.43
pair_13_14_CPU_S: st_13 - st_14 + 2648.446 x_13_CPU_B
 + 200091531.496 x_13_CPU_S + 3063.983 x_13_GPU + 200084439.772 x_14_CPU_S
 + 100042219.886 y_14_13_CPU_S <= 500211099.43
pair_13_14_GPU: st_13 - st_14 + 2648.446 x_13_CPU_B + 7091.724 x_13_CPU_S
 + 200087503.755 x_13_GPU + 200084439.772 x_14_GPU + 100042219.886 y_14_13_GPU
 <= 500211099.43
pair_13_15_CPU_B: st_13 - st_15 + 200087088.218 x_13_CPU_B
 + 7091.724 x_13_CPU_S + 3063.983 x_13_GPU + 200084439.772 x_15_CPU_B
 + 100042219.886 y_15_13_CPU_B <= 500211099.43
pair_13_15_CPU_S: st_13 - st_15 + 2648.446 x_13_CPU_B
 + 200091531.496 x_13_CPU_S + 3063.983 x_13_GPU + 200084439.772 x_15_CPU_S
 + 100042219.886 y_15_13_CPU_S <= 500211099.43
pair_13_15_GPU: st_13 - st_15 + 2648.446 x_13_CPU_B + 7091.724 x_13_CPU_S
 + 200087503.755 x_13_GPU + 200084439.772 x_15_GPU + 100042219.886 y_15_13_GPU
 <= 500211099.43
pair_13_8_CPU_B: st_13 - st_8 + 200087088.218 x_13_CPU_B + 7091.724 x_13_CPU_S
 + 3063.983 x_13_GPU + 200084439.772 x_8_CPU_B + 100042219.886 y_8_13_CPU_B
 <= 500211099.43
pair_13_8_CPU_S: st_13 - st_8 + 2648.446 x_13_CPU_B + 200091531.496 x_13_CPU_S
 + 3063.983 x_13_GPU + 200084439.772 x_8_CPU_S + 100042219.886 y_8_13_CPU_S
 <= 500211099.43
pair_13_8_GPU: st_13 - st_8 + 2648.446 x_13_CPU_B + 7091.724 x_13_CPU_S
 + 200087503.755 x_13_GPU + 200084439.772 x_8_GPU + 100042219.886 y_8_13_GPU
 <= 500211099.43
pair_13_9_CPU_B: st_13 - st_9 + 200087088.218 x_13_CPU_B + 7091.724 x_13_CPU_S
 + 3063.983 x_13_GPU + 200084439.772 x_9_CPU_B + 100042219.886 y_9_13_CPU_B
 <= 500211099.43
pair_13_9_CPU_S: st_13 - st_9 + 2648.446 x_13_CPU_B + 200091531.496 x_13_CPU_S
 + 3063.983 x_13_GPU + 200084439.772 x_9_CPU_S + 100042219.886 y_9_13_CPU_S
 <= 500211099.43
pair_13_9_GPU: st_13 - st_9 + 2648.446 x_13_CPU_B + 7091.724 x_13_CPU_S
 + 200087503.755 x_13_GPU + 200084439.772 x_9_GPU + 100042219.886 y_9_13_GPU
 <= 500211099.43
pair_14_10_CPU_B: - st_10 + st_14 + 200084439.772 x_10_CPU_B
 + 200084974.362 x_14_CPU_B + 1711.472 x_14_CPU_S + 985.383 x_14_GPU
 - 100042219.886 y_14_10_CPU_B <= 400168879.544
pair_14_10_CPU_S: - st_10 + st_14 + 200084439.772 x_10_CPU_S
 + 534.59 x_14_CPU_B + 200086151.244 x_14_CPU_S + 985.383 x_14_GPU
 - 100042219.886 y_14_10_CPU_S <= 400168879.544
pair_14_10_GPU: - st_10 + st_14 + 200084439.772 x_10_GPU + 534.59 x_14_CPU_B
 + 1711.472 x_14_CPU_S + 200085425.155 x_14_GPU - 100042219.886 y_14_10_GPU
 <= 400168879.544
pair_14_11_CPU_B: - st_11 + st_14 + 200084439.772 x_11_CPU_B
 + 200084974.362 x_14_CPU_B + 1711.472 x_14_CPU_S + 985.383 x_14_GPU
 + 100042219.886 y_11_14_CPU_B <= 500211099.43
pair_14_11_CPU_S: - st_11 + st_14 + 200084439.772 x_11_CPU_S
 + 534.59 x_14_CPU_B + 200086151.244 x_14_CPU_S + 985.383 x_14_GPU
 + 100042219.886 y_11_14_CPU_S <= 500211099.43
pair_14_11_GPU: - st_11 + st_14 + 200084439.772 x_11_GPU + 534.59 x_14_CPU_B
 + 1711.472 x_14_CPU_S + 200085425.155 x_14_GPU + 100042219.886 y_11_14_GPU
 <= 500211099.43
pair_14_12_CPU_B: - st_12 + st_14 + 200084439.772 x_12_CPU_B
 + 200084974.362 x_14_CPU_B + 1711.472 x_14_CPU_S + 985.383 x_14_GPU
 - 100042219.886 y_14_12_CPU_B <= 400168879.544
pair_14_12_CPU_S: - st_12 + st_14 + 200084439.772 x_12_CPU_S
 + 534.59 x_14_CPU_B + 200086151.244 x_14_CPU_S + 985.383 x_14_GPU
 - 100042219.886 y_14_12_CPU_S <= 400168879.544
pair_14_12_GPU: - st_12 + st_14 + 200084439.772 x_12_GPU + 534.59 x_14_CPU_B
 + 1711.472 x_14_CPU_S + 200085425.155 x_14_GPU - 100042219.886 y_14_12_GPU
 <= 400168879.544
pair_14_13_CPU_B: - st_13 + st_14 + 200084439.772 x_13_CPU_B
 + 200084974.362 x_14_CPU_B + 1711.472 x_14_CPU_S + 985.383 x_14_GPU
 - 100042219.886 y_14_13_CPU_B <= 400168879.544
pair_14_13_CPU_S: - st_13 + st_14 + 200084439.772 x_13_CPU_S
 + 534.59 x_14_CPU_B + 200086151.244 x_14_CPU_S + 985.383 x_14_GPU
 - 100042219.886 y_14_13_CPU_S <= 400168879.544
pair_14_13_GPU: - st_13 + st_14 + 200084439.772 x_13_GPU + 534.59 x_14_CPU_B
 + 1711.472 x_14_CPU_S + 200085425.155 x_14_GPU - 100042219.886 y_14_13_GPU
 <= 400168879.544
pair_14_8_CPU_B: st_14 - st_8 + 200084974.362 x_14_CPU_B + 1711.472 x_14_CPU_S
 + 985.383 x_14_GPU + 200084439.772 x_8_CPU_B + 100042219.886 y_8_14_CPU_B
 <= 500211099.43
pair_14_8_CPU_S: st_14 - st_8 + 534.59 x_14_CPU_B + 200086151.244 x_14_CPU_S
 + 985.383 x_14_GPU + 200084439.772 x_8_CPU_S + 100042219.886 y_8_14_CPU_S
 <= 500211099.43
pair_14_8_GPU: st_14 - st_8 + 534.59 x_14_CPU_B + 1711.472 x_14_CPU_S
 + 200085425.155 x_14_GPU + 200084439.772 x_8_GPU + 100042219.886 y_8_14_GPU
 <= 500211099.43
pair_14_9_CPU_B: st_14 - st_9 + 200084974.362 x_14_CPU_B + 1711.472 x_14_CPU_S
 + 985.383 x_14_GPU + 200084439.772 x_9_CPU_B + 100042219.886 y_9_14_CPU_B
 <= 500211099.43
pair_14_9_CPU_S: st_14 - st_9 + 534.59 x_14_CPU_B + 200086151.244 x_14_CPU_S
 + 985.383 x_14_GPU + 200084439.772 x_9_CPU_S + 100042219.886 y_9_14_CPU_S
 <= 500211099.43
pair_14_9_GPU: st_14 - st_9 + 534.59 x_14_CPU_B + 1711.472 x_14_CPU_S
 + 200085425.155 x_14_GPU + 200084439.772 x_9_GPU + 100042219.886 y_9_14_GPU
 <= 500211099.43
pair_15_10_CPU_B: - st_10 + st_15 + 200084439.772 x_10_CPU_B
 + 200084899.11 x_15_CPU_B + 1318.261 x_15_CPU_S + 913.674 x_15_GPU
 + 100042219.886 y_10_15_CPU_B <= 500211099.43
pair_15_10_CPU_S: - st_10 + st_15 + 200084439.772 x_10_CPU_S
 + 459.338 x_15_CPU_B + 200085758.033 x_15_CPU_S + 913.674 x_15_GPU
 + 100042219.886 y_10_15_CPU_S <= 500211099.43
pair_15_10_GPU: - st_10 + st_15 + 200084439.772 x_10_GPU + 459.338 x_15_CPU_B
 + 1318.261 x_15_CPU_S + 200085353.446 x_15_GPU + 100042219.886 y_10_15_GPU
 <= 500211099.43
pair_15_11_CPU_B: - st_11 + st_15 + 200084439.772 x_11_CPU_B
 + 200084899.11 x_15_CPU_B + 1318.261 x_15_CPU_S + 913.674 x_15_GPU
 + 100042219.886 y_11_15_CPU_B <= 500211099.43
pair_15_11_CPU_S: - st_11 + st_15 + 200084439.772 x_11_CPU_S
 + 459.338 x_15_CPU_B + 200085758.033 x_15_CPU_S + 913.674 x_15_GPU
 + 100042219.886 y_11_15_CPU_S <= 500211099.43
pair_15_11_GPU: - st_11 + st_15 + 200084439.772 x_11_GPU + 459.338 x_15_CPU_B
 + 1318.261 x_15_CPU_S + 200085353.446 x_15_GPU + 100042219.886 y_11_15_GPU
 <= 500211099.43
pair_15_12_CPU_B: - st_12 + st_15 + 200084439.772 x_12_CPU_B
 + 200084899.11 x_15_CPU_B + 1318.261 x_15_CPU_S + 913.674 x_15_GPU
 + 100042219.886 y_12_15_CPU_B <= 500211099.43
pair_15_12_CPU_S: - st_12 + st_15 + 200084439.772 x_12_CPU_S
 + 459.338 x_15_CPU_B + 200085758.033 x_15_CPU_S + 913.674 x_15_GPU
 + 100042219.886 y_12_15_CPU_S <= 500211099.43
pair_15_12_GPU: - st_12 + st_15 + 200084439.772 x_12_GPU + 459.338 x_15_CPU_B
 + 1318.261 x_15_CPU_S + 200085353.446 x_15_GPU + 100042219.886 y_12_15_GPU
 <= 500211099.43
pair_15_13_CPU_B: - st_13 + st_15 + 200084439.772 x_13_CPU_B
 + 200084899.11 x_15_CPU_B + 1318.261 x_15_CPU_S + 913.674 x_15_GPU
 - 100042219.886 y_15_13_CPU_B <= 400168879.544
pair_15_13_CPU_S: - st_13 + st_15 + 200084439.772 x_13_CPU_S
 + 459.338 x_15_CPU_B + 200085758.033 x_15_CPU_S + 913.674 x_15_GPU
 - 100042219.886 y_15_13_CPU_S <= 400168879.544
pair_15_13_GPU: - st_13 + st_15 + 200084439.772 x_13_GPU + 459.338 x_15_CPU_B
 + 1318.261 x_15_CPU_S + 200085353.446 x_15_GPU - 100042219.886 y_15_13_GPU
 <= 400168879.544
pair_15_8_CPU_B: st_15 - st_8 + 200084899.11 x_15_CPU_B + 1318.261 x_15_CPU_S
 + 913.674 x_15_GPU + 200084439.772 x_8_CPU_B + 100042219.886 y_8_15_CPU_B
 <= 500211099.43
pair_15_8_CPU_S: st_15 - st_8 + 459.338 x_15_CPU_B + 200085758.033 x_15_CPU_S
 + 913.674 x_15_GPU + 200084439.772 x_8_CPU_S + 100042219.886 y_8_15_CPU_S
 <= 500211099.43
pair_15_8_GPU: st_15 - st_8 + 459.338 x_15_CPU_B + 1318.261 x_15_CPU_S
 + 200085353.446 x_15_GPU + 200084439.772 x_8_GPU + 100042219.886 y_8_15_GPU
 <= 500211099.43
pair_15_9_CPU_B: st_15 - st_9 + 200084899.11 x_15_CPU_B + 1318.261 x_15_CPU_S
 + 913.674 x_15_GPU + 200084439.772 x_9_CPU_B + 100042219.886 y_9_15_CPU_B
 <= 500211099.43
pair_15_9_CPU_S: st_15 - st_9 + 459.338 x_15_CPU_B + 200085758.033 x_15_CPU_S
 + 913.674 x_15_GPU + 200084439.772 x_9_CPU_S + 100042219.886 y_9_15_CPU_S
 <= 500211099.43
pair_15_9_GPU: st_15 - st_9 + 459.338 x_15_CPU_B + 1318.261 x_15_CPU_S
 + 200085353.446 x_15_GPU + 200084439.772 x_9_GPU + 100042219.886 y_9_15_GPU
 <= 500211099.43
pair_8_10_CPU_B: - st_10 + st_8 + 200084439.772 x_10_CPU_B
 + 200085246.322 x_8_CPU_B + 2240.643 x_8_CPU_S + 1350.344 x_8_GPU
 - 100042219.886 y_8_10_CPU_B <= 400168879.544
pair_8_10_CPU_S: - st_10 + st_8 + 200084439.772 x_10_CPU_S + 806.55 x_8_CPU_B
 + 200086680.415 x_8_CPU_S + 1350.344 x_8_GPU - 100042219.886 y_8_10_CPU_S
 <= 400168879.544
pair_8_10_GPU: - st_10 + st_8 + 200084439.772 x_10_GPU + 806.55 x_8_CPU_B
 + 2240.643 x_8_CPU_S + 200085790.116 x_8_GPU - 100042219.886 y_8_10_GPU
 <= 400168879.544
pair_8_11_CPU_B: - st_11 + st_8 + 200084439.772 x_11_CPU_B
 + 200085246.322 x_8_CPU_B + 2240.643 x_8_CPU_S + 1350.344 x_8_GPU
 - 100042219.886 y_8_11_CPU_B <= 400168879.544
pair_8_11_CPU_S: - st_11 + st_8 + 200084439.772 x_11_CPU_S + 806.55 x_8_CPU_B
 + 200086680.415 x_8_CPU_S + 1350.344 x_8_GPU - 100042219.886 y_8_11_CPU_S
 <= 400168879.544
pair_8_11_GPU: - st_11 + st_8 + 200084439.772 x_11_GPU + 806.55 x_8_CPU_B
 + 2240.643 x_8_CPU_S + 200085790.116 x_8_GPU - 100042219.886 y_8_11_GPU
 <= 400168879.544
pair_8_12_CPU_B: - st_12 + st_8 + 200084439.772 x_12_CPU_B
 + 200085246.322 x_8_CPU_B + 2240.643 x_8_CPU_S + 1350.344 x_8_GPU
 - 100042219.886 y_8_12_CPU_B <= 400168879.544
pair_8_12_CPU_S: - st_12 + st_8 + 200084439.772 x_12_CPU_S + 806.55 x_8_CPU_B
 + 200086680.415 x_8_CPU_S + 1350.344 x_8_GPU - 100042219.886 y_8_12_CPU_S
 <= 400168879.544
pair_8_12_GPU: - st_12 + st_8 + 200084439.772 x_12_GPU + 806.55 x_8_CPU_B
 + 2240.643 x_8_CPU_S + 200085790.116 x_8_GPU - 100042219.886 y_8_12_GPU
 <= 400168879.544
pair_8_13_CPU_B: - st_13 + st_8 + 200084439.772 x_13_CPU_B
 + 200085246.322 x_8_CPU_B + 2240.643 x_8_CPU_S + 1350.344 x_8_GPU
 - 100042219.886 y_8_13_CPU_B <= 400168879.544
pair_8_13_CPU_S: - st_13 + st_8 + 200084439.772 x_13_CPU_S + 806.55 x_8_CPU_B
 + 200086680.415 x_8_CPU_S + 1350.344 x_8_GPU - 100042219.886 y_8_13_CPU_S
 <= 400168879.544
pair_8_13_GPU: - st_13 + st_8 + 200084439.772 x_13_GPU + 806.55 x_8_CPU_B
 + 2240.643 x_8_CPU_S + 200085790.116 x_8_GPU - 100042219.886 y_8_13_GPU
 <= 400168879.544
pair_8_14_CPU_B: - st_14 + st_8 + 200084439.772 x_14_CPU_B
 + 200085246.322 x_8_CPU_B + 2240.643 x_8_CPU_S + 1350.344 x_8_GPU
 - 100042219.886 y_8_14_CPU_B <= 400168879.544
pair_8_14_CPU_S: - st_14 + st_8 + 200084439.772 x_14_CPU_S + 806.55 x_8_CPU_B
 + 200086680.415 x_8_CPU_S + 1350.344 x_8_GPU - 100042219.886 y_8_14_CPU_S
 <= 400168879.544
pair_8_14_GPU: - st_14 + st_8 + 200084439.772 x_14_GPU + 806.55 x_8_CPU_B
 + 2240.643 x_8_CPU_S + 200085790.116 x_8_GPU - 100042219.886 y_8_14_GPU
 <= 400168879.544
pair_8_15_CPU_B: - st_15 + st_8 + 200084439.772 x_15_CPU_B
 + 200085246.322 x_8_CPU_B + 2240.643 x_8_CPU_S + 1350.344 x_8_GPU
 - 100042219.886 y_8_15_CPU_B <= 400168879.544
pair_8_15_CPU_S: - st_15 + st_8 + 200084439.772 x_15_CPU_S + 806.55 x_8_CPU_B
 + 200086680.415 x_8_CPU_S + 1350.344 x_8_GPU - 100042219.886 y_8_15_CPU_S
 <= 400168879.544
pair_8_15_GPU: - st_15 + st_8 + 200084439.772 x_15_GPU + 806.55 x_8_CPU_B
 + 2240.643 x_8_CPU_S + 200085790.116 x_8_GPU - 100042219.886 y_8_15_GPU
 <= 400168879.544
pair_8_9_CPU_B: st_8 - st_9 + 200085246.322 x_8_CPU_B + 2240.643 x_8_CPU_S
 + 1350.344 x_8_GPU + 200084439.772 x_9_CPU_B - 100042219.886 y_8_9_CPU_B
 <= 400168879.544
pair_8_9_CPU_S: st_8 - st_9 + 806.55 x_8_CPU_B + 200086680.415 x_8_CPU_S
 + 1350.344 x_8_GPU + 200084439.772 x_9_CPU_S - 100042219.886 y_8_9_CPU_S
 <= 400168879.544
pair_8_9_GPU: st_8 - st_9 + 806.55 x_8_CPU_B + 2240.643 x_8_CPU_S
 + 200085790.116 x_8_GPU + 200084439.772 x_9_GPU - 100042219.886 y_8_9_GPU
 <= 400168879.544
pair_9_11_CPU_B: - st_11 + st_9 + 200084439.772 x_11_CPU_B
 + 200085079.32 x_9_CPU_B + 1572.221 x_9_CPU_S + 1294.636 x_9_GPU
 - 100042219.886 y_9_11_CPU_B <= 400168879.544
pair_9_11_CPU_S: - st_11 + st_9 + 200084439.772 x_11_CPU_S + 639.548 x_9_CPU_B
 + 200086011.993 x_9_CPU_S + 1294.636 x_9_GPU - 100042219.886 y_9_11_CPU_S
 <= 400168879.544
pair_9_11_GPU: - st_11 + st_9 + 200084439.772 x_11_GPU + 639.548 x_9_CPU_B
 + 1572.221 x_9_CPU_S + 200085734.408 x_9_GPU - 100042219.886 y_9_11_GPU
 <= 400168879.544
pair_9_12_CPU_B: - st_12 + st_9 + 200084439.772 x_12_CPU_B
 + 200085079.32 x_9_CPU_B + 1572.221 x_9_CPU_S + 1294.636 x_9_GPU
 - 100042219.886 y_9_12_CPU_B <= 400168879.544
pair_9_12_CPU_S: - st_12 + st_9 + 200084439.772 x_12_CPU_S + 639.548 x_9_CPU_B
 + 200086011.993 x_9_CPU_S + 1294.636 x_9_GPU - 100042219.886 y_9_12_CPU_S
 <= 400168879.544
pair_9_12_GPU: - st_12 + st_9 + 200084439.772 x_12_GPU + 639.548 x_9_CPU_B
 + 1572.221 x_9_CPU_S + 200085734.408 x_9_GPU - 100042219.886 y_9_12_GPU
 <= 400168879.544
pair_9_13_CPU_B: - st_13 + st_9 + 200084439.772 x_13_CPU_B
 + 200085079.32 x_9_CPU_B + 1572.221 x_9_CPU_S + 1294.636 x_9_GPU
 - 100042219.886 y_9_13_CPU_B <= 400168879.544
pair_9_13_CPU_S: - st_13 + st_9 + 200084439.772 x_13_CPU_S + 639.548 x_9_CPU_B
 + 200086011.993 x_9_CPU_S + 1294.636 x_9_GPU - 100042219.886 y_9_13_CPU_S
 <= 400168879.544
pair_9_13_GPU: - st_13 + st_9 + 200084439.772 x_13_GPU + 639.548 x_9_CPU_B
 + 1572.221 x_9_CPU_S + 200085734.408 x_9_GPU - 100042219.886 y_9_13_GPU
 <= 400168879.544
pair_9_14_CPU_B: - st_14 + st_9 + 200084439.772 x_14_CPU_B
 + 200085079.32 x_9_CPU_B + 1572.221 x_9_CPU_S + 1294.636 x_9_GPU
 - 100042219.886 y_9_14_CPU_B <= 400168879.544
pair_9_14_CPU_S: - st_14 + st_9 + 200084439.772 x_14_CPU_S + 639.548 x_9_CPU_B
 + 200086011.993 x_9_CPU_S + 1294.636 x_9_GPU - 100042219.886 y_9_14_CPU_S
 <= 400168879.544
pair_9_14_GPU: - st_14 + st_9 + 200084439.772 x_14_GPU + 639.548 x_9_CPU_B
 + 1572.221 x_9_CPU_S + 200085734.408 x_9_GPU - 100042219.886 y_9_14_GPU
 <= 400168879.544
pair_9_15_CPU_B: - st_15 + st_9 + 200084439.772 x_15_CPU_B
 + 200085079.32 x_9_CPU_B + 1572.221 x_9_CPU_S + 1294.636 x_9_GPU
 - 100042219.886 y_9_15_CPU_B <= 400168879.544
pair_9_15_CPU_S: - st_15 + st_9 + 200084439.772 x_15_CPU_S + 639.548 x_9_CPU_B
 + 200086011.993 x_9_CPU_S + 1294.636 x_9_GPU - 100042219.886 y_9_15_CPU_S
 <= 400168879.544
pair_9_15_GPU: - st_15 + st_9 + 200084439.772 x_15_GPU + 639.548 x_9_CPU_B
 + 1572.221 x_9_CPU_S + 200085734.408 x_9_GPU - 100042219.886 y_9_15_GPU
 <= 400168879.544
pair_9_8_CPU_B: - st_8 + st_9 + 200084439.772 x_8_CPU_B
 + 200085079.32 x_9_CPU_B + 1572.221 x_9_CPU_S + 1294.636 x_9_GPU
 + 100042219.886 y_8_9_CPU_B <= 500211099.43
pair_9_8_CPU_S: - st_8 + st_9 + 200084439.772 x_8_CPU_S + 639.548 x_9_CPU_B
 + 200086011.993 x_9_CPU_S + 1294.636 x_9_GPU + 100042219.886 y_8_9_CPU_S
 <= 500211099.43
pair_9_8_GPU: - st_8 + st_9 + 200084439.772 x_8_GPU + 639.548 x_9_CPU_B
 + 1572.221 x_9_CPU_S + 200085734.408 x_9_GPU + 100042219.886 y_8_9_GPU
 <= 500211099.43
Binaries
x_10_CPU_B
x_10_CPU_S
x_10_GPU
x_11_CPU_B
x_11_CPU_S
x_11_GPU
x_12_CPU_B
x_12_CPU_S
x_12_GPU
x_13_CPU_B
x_13_CPU_S
x_13_GPU
x_14_CPU_B
x_14_CPU_S
x_14_GPU
x_15_CPU_B
x_15_CPU_S
x_15_GPU
x_16_CPU_B
x_16_CPU_S
x_16_GPU
x_7_CPU_B
x_7_CPU_S
x_7_GPU
x_8_CPU_B
x_8_CPU_S
x_8_GPU
x_9_CPU_B
x_9_CPU_S
x_9_GPU
y_10_12_CPU_B
y_10_12_CPU_S
y_10_12_GPU
y_10_13_CPU_B
y_10_13_CPU_S
y_10_13_GPU
y_10_15_CPU_B
y_10_15_CPU_S
y_10_15_GPU
y_11_10_CPU_B
y_11_10_CPU_S
y_11_10_GPU
y_11_14_CPU_B
y_11_14_CPU_S
y_11_14_GPU
y_11_15_CPU_B
y_11_15_CPU_S
y_11_15_GPU
y_12_15_CPU_B
y_12_15_CPU_S
y_12_15_GPU
y_14_10_CPU_B
y_14_10_CPU_S
y_14_10_GPU
y_14_12_CPU_B
y_14_12_CPU_S
y_14_12_GPU
y_14_13_CPU_B
y_14_13_CPU_S
y_14_13_GPU
y_15_13_CPU_B
y_15_13_CPU_S
y_15_13_GPU
y_8_10_CPU_B
y_8_10_CPU_S
y_8_10_GPU
y_8_11_CPU_B
y_8_11_CPU_S
y_8_11_GPU
y_8_12_CPU_B
y_8_12_CPU_S
y_8_12_GPU
y_8_13_CPU_B
y_8_13_CPU_S
y_8_13_GPU
y_8_14_CPU_B
y_8_14_CPU_S
y_8_14_GPU
y_8_15_CPU_B
y_8_15_CPU_S
y_8_15_GPU
y_8_9_CPU_B
y_8_9_CPU_S
y_8_9_GPU
y_9_11_CPU_B
y_9_11_CPU_S
y_9_11_GPU
y_9_12_CPU_B
y_9_12_CPU_S
y_9_12_GPU
y_9_13_CPU_B
y_9_13_CPU_S
y_9_13_GPU
y_9_14_CPU_B
y_9_14_CPU_S
y_9_14_GPU
y_9_15_CPU_B
y_9_15_CPU_S
y_9_15_GPU
End
